
Gurobi 12.0.1 (win64, gurobi_cl) logging started Thu Apr 23 16:56:46 2026

Set parameter Username
Set parameter LicenseID to value 2650088
Set parameter LogFile to value "gurobi.log"
Using license file C:\Users\YongJae\gurobi.lic

Gurobi 12.0.1 (win64, gurobi_cl) logging started Thu Apr 23 17:02:34 2026

Set parameter Username
Set parameter LicenseID to value 2812301
Set parameter LogFile to value "gurobi.log"
Using license file C:\Users\YongJae\gurobi.lic
Academic license - for non-commercial use only - expires 2027-04-23
